pair_coeff 1 1  0.061 2.94
pair_coeff 2 2  0.118 3.905
pair_coeff 3 3  0.105 3.75
pair_coeff 4 4  0.21 2.96
pair_coeff 5 5  0.17 3.0
pair_coeff 6 6  0.16 3.91
pair_coeff 7 7  0.0 0.0
pair_coeff 8 8  0.294 3.73
pair_coeff 9 9  0.207 3.775
pair_coeff 10 10  0.175 3.905
pair_coeff 11 11  0.16 3.91
pair_coeff 12 12  0.145 3.96
pair_coeff 13 13  0.118 3.905
pair_coeff 14 14  0.14 3.85
pair_coeff 15 15  0.08 3.85
pair_coeff 16 16  0.115 3.8
pair_coeff 17 17  0.11 3.75
pair_coeff 18 18  0.05 3.8
pair_coeff 19 19  0.105 3.75
pair_coeff 20 20  0.17 3.07
pair_coeff 21 21  0.0 0.0
pair_coeff 22 22  0.207 3.775
pair_coeff 23 23  0.118 3.905
pair_coeff 24 24  0.25 3.7
pair_coeff 25 25  0.25 3.55
pair_coeff 26 26  0.25 3.55
pair_coeff 27 27  0.25 3.55
pair_coeff 28 28  0.0 0.0
pair_coeff 29 29  0.0 0.0
pair_coeff 30 30  0.207 3.775
pair_coeff 31 31  0.118 3.905
pair_coeff 32 32  0.17 3.8
pair_coeff 33 33  0.118 3.8
pair_coeff 34 34  0.17 3.8
pair_coeff 35 35  0.118 3.8
pair_coeff 36 36  0.17 3.2
pair_coeff 37 37  0.15 3.65
pair_coeff 38 38  0.207 3.775
pair_coeff 39 39  0.08 3.85
pair_coeff 40 40  0.05 3.8
pair_coeff 41 41  0.17 3.0
pair_coeff 42 42  0.17 3.8
pair_coeff 43 43  0.118 3.8
pair_coeff 44 44  0.118 3.8
pair_coeff 45 45  0.3 3.4
pair_coeff 46 46  0.08 3.8
pair_coeff 47 47  0.3 3.47
pair_coeff 48 48  0.05 3.8
pair_coeff 49 49  0.266 3.47
pair_coeff 50 50  0.395 3.56
pair_coeff 51 51  0.28 2.93
pair_coeff 52 52  0.16 3.81
pair_coeff 53 53  0.21 2.96
pair_coeff 54 54  0.17 3.25
pair_coeff 55 55  0.115 3.8
pair_coeff 56 56  0.17 3.8
pair_coeff 57 57  0.0 0.0
pair_coeff 58 58  0.02 2.556
pair_coeff 59 59  0.069 2.78
pair_coeff 60 60  0.2339 3.401
pair_coeff 61 61  0.317 3.624
pair_coeff 62 62  0.433 3.935
pair_coeff 63 63  0.1521 3.15061
pair_coeff 64 64  0.0 0.0
pair_coeff 65 65  0.155 3.15365
pair_coeff 66 66  0.0 0.0
pair_coeff 67 67  0.0 0.0
pair_coeff 68 68  0.15 3.176
pair_coeff 69 69  0.0 0.0
pair_coeff 70 70  0.1 3.27
pair_coeff 71 71  0.0 0.0
pair_coeff 72 72  0.0 0.0
pair_coeff 73 73  0.16 3.12
pair_coeff 74 74  0.0 0.0
pair_coeff 75 75  0.0 0.0
pair_coeff 76 76  0.1554 3.16557
pair_coeff 77 77  0.0 0.0
pair_coeff 78 78  0.17 3.42
pair_coeff 79 79  0.0 0.0
pair_coeff 80 80  0.066 3.5
pair_coeff 81 81  0.066 3.5
pair_coeff 82 82  0.066 3.5
pair_coeff 83 83  0.066 3.5
pair_coeff 84 84  0.066 3.5
pair_coeff 85 85  0.03 2.5
pair_coeff 86 86  0.076 3.55
pair_coeff 87 87  0.076 3.55
pair_coeff 88 88  0.076 3.55
pair_coeff 89 89  0.03 2.42
pair_coeff 90 90  0.07 3.55
pair_coeff 91 91  0.03 2.42
pair_coeff 92 92  0.07 3.55
pair_coeff 93 93  0.066 3.5
pair_coeff 94 94  0.066 3.5
pair_coeff 95 95  0.076 3.55
pair_coeff 96 96  0.17 3.12
pair_coeff 97 97  0.0 0.0
pair_coeff 98 98  0.03 2.5
pair_coeff 99 99  0.066 3.5
pair_coeff 100 100  0.066 3.5
pair_coeff 101 101  0.066 3.5
pair_coeff 102 102  0.066 3.5
pair_coeff 103 103  0.062 3.25
pair_coeff 104 104  0.17 3.07
pair_coeff 105 105  0.0 0.0
pair_coeff 106 106  0.061 2.94
pair_coeff 107 107  0.03 2.5
pair_coeff 108 108  0.07 3.55
pair_coeff 109 109  0.17 3.07
pair_coeff 110 110  0.0 0.0
pair_coeff 111 111  0.17 3.07
pair_coeff 112 112  0.0 0.0
pair_coeff 113 113  0.17 3.07
pair_coeff 114 114  0.0 0.0
pair_coeff 115 115  0.066 3.5
pair_coeff 116 116  0.066 3.5
pair_coeff 117 117  0.066 3.5
pair_coeff 118 118  0.03 2.5
pair_coeff 119 119  0.14 2.9
pair_coeff 120 120  0.076 3.55
pair_coeff 121 121  0.14 2.9
pair_coeff 122 122  0.14 2.9
pair_coeff 123 123  0.066 3.5
pair_coeff 124 124  0.066 3.5
pair_coeff 125 125  0.066 3.5
pair_coeff 126 126  0.066 3.5
pair_coeff 127 127  0.03 2.5
pair_coeff 128 128  0.14 2.9
pair_coeff 129 129  0.17 3.07
pair_coeff 130 130  0.0 0.0
pair_coeff 131 131  0.066 3.5
pair_coeff 132 132  0.03 2.5
pair_coeff 133 133  0.066 3.5
pair_coeff 134 134  0.03 2.5
pair_coeff 135 135  0.066 3.5
pair_coeff 136 136  0.03 2.5
pair_coeff 137 137  0.066 3.5
pair_coeff 138 138  0.03 2.5
pair_coeff 139 139  0.066 3.5
pair_coeff 140 140  0.066 3.5
pair_coeff 141 141  0.07 3.55
pair_coeff 142 142  0.25 3.55
pair_coeff 143 143  0.25 3.7
pair_coeff 144 144  0.25 3.55
pair_coeff 145 145  0.25 3.55
pair_coeff 146 146  0.0 0.0
pair_coeff 147 147  0.0 0.0
pair_coeff 148 148  0.066 3.5
pair_coeff 149 149  0.066 3.5
pair_coeff 150 150  0.066 3.5
pair_coeff 151 151  0.066 3.5
pair_coeff 152 152  0.066 3.5
pair_coeff 153 153  0.066 3.5
pair_coeff 154 154  0.066 3.5
pair_coeff 155 155  0.066 3.5
pair_coeff 156 156  0.066 3.5
pair_coeff 157 157  0.066 3.5
pair_coeff 158 158  0.066 3.5
pair_coeff 159 159  0.066 3.5
pair_coeff 160 160  0.066 3.5
pair_coeff 161 161  0.066 3.5
pair_coeff 162 162  0.066 3.5
pair_coeff 163 163  0.07 3.55
pair_coeff 164 164  0.25 3.55
pair_coeff 165 165  0.066 3.5
pair_coeff 166 166  0.066 3.5
pair_coeff 167 167  0.066 3.5
pair_coeff 168 168  0.3 3.4
pair_coeff 169 169  0.076 3.55
pair_coeff 170 170  0.07 3.55
pair_coeff 171 171  0.066 3.5
pair_coeff 172 172  0.066 3.5
pair_coeff 173 173  0.105 3.75
pair_coeff 174 174  0.105 3.75
pair_coeff 175 175  0.105 3.75
pair_coeff 176 176  0.105 3.75
pair_coeff 177 177  0.105 3.75
pair_coeff 178 178  0.21 2.96
pair_coeff 179 179  0.17 3.25
pair_coeff 180 180  0.17 3.25
pair_coeff 181 181  0.17 3.25
pair_coeff 182 182  0.0 0.0
pair_coeff 183 183  0.0 0.0
pair_coeff 184 184  0.066 3.5
pair_coeff 185 185  0.066 3.5
pair_coeff 186 186  0.066 3.5
pair_coeff 187 187  0.066 3.5
pair_coeff 188 188  0.066 3.5
pair_coeff 189 189  0.105 3.75
pair_coeff 190 190  0.21 2.96
pair_coeff 191 191  0.17 3.25
pair_coeff 192 192  0.0 0.0
pair_coeff 193 193  0.17 3.25
pair_coeff 194 194  0.105 3.75
pair_coeff 195 195  0.21 2.96
pair_coeff 196 196  0.0 0.0
pair_coeff 197 197  0.02 2.5
pair_coeff 198 198  0.066 3.5
pair_coeff 199 199  0.066 3.5
pair_coeff 200 200  0.066 3.5
pair_coeff 201 201  0.066 3.5
pair_coeff 202 202  0.07 3.55
pair_coeff 203 203  0.15 3.65
pair_coeff 204 204  0.17 3.2
pair_coeff 205 205  0.07 3.55
pair_coeff 206 206  0.3 3.4
pair_coeff 207 207  0.17 3.25
pair_coeff 208 208  0.07 3.55
pair_coeff 209 209  0.105 3.75
pair_coeff 210 210  0.21 2.96
pair_coeff 211 211  0.17 3.0
pair_coeff 212 212  0.0 0.0
pair_coeff 213 213  0.105 3.75
pair_coeff 214 214  0.21 2.96
pair_coeff 215 215  0.066 3.5
pair_coeff 216 216  0.066 3.5
pair_coeff 217 217  0.066 3.5
pair_coeff 218 218  0.066 3.5
pair_coeff 219 219  0.105 3.75
pair_coeff 220 220  0.21 2.96
pair_coeff 221 221  0.015 2.42
pair_coeff 222 222  0.105 3.75
pair_coeff 223 223  0.21 2.96
pair_coeff 224 224  0.015 2.42
pair_coeff 225 225  0.066 3.5
pair_coeff 226 226  0.066 3.5
pair_coeff 227 227  0.066 3.5
pair_coeff 228 228  0.066 3.5
pair_coeff 229 229  0.17 3.25
pair_coeff 230 230  0.17 3.25
pair_coeff 231 231  0.17 3.25
pair_coeff 232 232  0.0 0.0
pair_coeff 233 233  0.0 0.0
pair_coeff 234 234  0.066 3.5
pair_coeff 235 235  0.066 3.5
pair_coeff 236 236  0.066 3.5
pair_coeff 237 237  0.066 3.5
pair_coeff 238 238  0.066 3.5
pair_coeff 239 239  0.066 3.5
pair_coeff 240 240  0.066 3.5
pair_coeff 241 241  0.066 3.5
pair_coeff 242 242  0.066 3.5
pair_coeff 243 243  0.17 3.25
pair_coeff 244 244  0.0 0.0
pair_coeff 245 245  0.05 3.55
pair_coeff 246 246  0.17 3.25
pair_coeff 247 247  0.0 0.0
pair_coeff 248 248  0.066 3.5
pair_coeff 249 249  0.066 3.5
pair_coeff 250 250  0.066 3.5
pair_coeff 251 251  0.066 3.5
pair_coeff 252 252  0.17 3.25
pair_coeff 253 253  0.0 0.0
pair_coeff 254 254  0.17 3.25
pair_coeff 255 255  0.08 3.5
pair_coeff 256 256  0.17 3.25
pair_coeff 257 257  0.0 0.0
pair_coeff 258 258  0.08 3.5
pair_coeff 259 259  0.05 2.5
pair_coeff 260 260  0.08 3.5
pair_coeff 261 261  0.05 2.5
pair_coeff 262 262  0.17 3.25
pair_coeff 263 263  0.105 3.75
pair_coeff 264 264  0.17 3.25
pair_coeff 265 265  0.105 3.75
pair_coeff 266 266  0.08 3.5
pair_coeff 267 267  0.08 3.5
pair_coeff 268 268  0.0 0.0
pair_coeff 269 269  0.21 2.96
pair_coeff 270 270  0.0 0.0
pair_coeff 271 271  0.21 2.96
pair_coeff 272 272  0.05 2.5
pair_coeff 273 273  0.05 2.5
pair_coeff 274 274  0.08 3.5
pair_coeff 275 275  0.05 2.5
pair_coeff 276 276  0.17 3.25
pair_coeff 277 277  0.105 3.75
pair_coeff 278 278  0.17 3.25
pair_coeff 279 279  0.08 3.5
pair_coeff 280 280  0.08 3.5
pair_coeff 281 281  0.08 3.5
pair_coeff 282 282  0.0 0.0
pair_coeff 283 283  0.21 2.96
pair_coeff 284 284  0.17 3.25
pair_coeff 285 285  0.0 0.0
pair_coeff 286 286  0.0 0.0
pair_coeff 287 287  0.05 2.5
pair_coeff 288 288  0.05 2.5
pair_coeff 289 289  0.17 3.25
pair_coeff 290 290  0.08 3.5
pair_coeff 291 291  0.17 3.25
pair_coeff 292 292  0.08 3.5
pair_coeff 293 293  0.08 3.5
pair_coeff 294 294  0.08 3.5
pair_coeff 295 295  0.17 3.25
pair_coeff 296 296  0.08 3.5
pair_coeff 297 297  0.17 3.25
pair_coeff 298 298  0.05 2.5
pair_coeff 299 299  0.17 3.25
pair_coeff 300 300  0.0 0.0
pair_coeff 301 301  0.0 0.0
pair_coeff 302 302  0.05 2.5
pair_coeff 303 303  0.0 0.0
pair_coeff 304 304  0.17 3.25
pair_coeff 305 305  0.08 3.5
pair_coeff 306 306  0.17 3.25
pair_coeff 307 307  0.08 3.5
pair_coeff 308 308  0.08 3.5
pair_coeff 309 309  0.105 3.75
pair_coeff 310 310  0.0 0.0
pair_coeff 311 311  0.17 3.25
pair_coeff 312 312  0.0 0.0
pair_coeff 313 313  0.21 2.96
pair_coeff 314 314  0.08 3.5
pair_coeff 315 315  0.05 2.5
pair_coeff 316 316  0.08 3.5
pair_coeff 317 317  0.05 2.5
pair_coeff 318 318  0.08 3.5
pair_coeff 319 319  0.05 2.5
pair_coeff 320 320  0.17 3.25
pair_coeff 321 321  0.105 3.75
pair_coeff 322 322  0.17 3.25
pair_coeff 323 323  0.08 3.5
pair_coeff 324 324  0.08 3.5
pair_coeff 325 325  0.08 3.5
pair_coeff 326 326  0.0 0.0
pair_coeff 327 327  0.21 2.96
pair_coeff 328 328  0.0 0.0
pair_coeff 329 329  0.17 3.25
pair_coeff 330 330  0.0 0.0
pair_coeff 331 331  0.0 0.0
pair_coeff 332 332  0.05 2.5
pair_coeff 333 333  0.05 2.5
pair_coeff 334 334  0.08 3.5
pair_coeff 335 335  0.05 2.5
pair_coeff 336 336  0.2 3.74
pair_coeff 337 337  0.21 2.96
pair_coeff 338 338  0.17 3.0
pair_coeff 339 339  0.066 3.55
pair_coeff 340 340  0.08 3.5
pair_coeff 341 341  0.3 3.4
pair_coeff 342 342  0.076 3.55
pair_coeff 343 343  0.71 3.05
pair_coeff 344 344  0.71 4.02
pair_coeff 345 345  0.71 4.28
pair_coeff 346 346  0.71 4.81
pair_coeff 347 347  0.0005 5.34
pair_coeff 348 348  0.0005 2.87
pair_coeff 349 349  0.0005 4.07
pair_coeff 350 350  0.0005 5.17
pair_coeff 351 351  0.0005 5.6
pair_coeff 352 352  0.0005 6.2
pair_coeff 353 353  0.875044 1.644471
pair_coeff 354 354  0.449657 2.412031
pair_coeff 355 355  0.118226 3.102688
pair_coeff 356 356  0.047096 3.81661
pair_coeff 357 357  0.3 4.2
pair_coeff 358 358  0.05 2.5
pair_coeff 359 359  0.5 4.25
pair_coeff 360 360  0.3 4.2
pair_coeff 361 361  0.05 2.5
pair_coeff 362 362  0.25 3.15
pair_coeff 363 363  0.3 4.2
pair_coeff 364 364  0.05 2.5
pair_coeff 365 365  0.15 3.65
pair_coeff 366 366  0.25 3.4
pair_coeff 367 367  0.3 4.2
pair_coeff 368 368  0.05 2.5
pair_coeff 369 369  0.25 3.4
pair_coeff 370 370  0.05 2.5
pair_coeff 371 371  0.3 4.2
pair_coeff 372 372  0.05 2.5
pair_coeff 373 373  0.3 4.2
pair_coeff 374 374  0.05 2.5
pair_coeff 375 375  0.0 0.0
pair_coeff 376 376  0.25 3.2
pair_coeff 377 377  0.0 0.0
pair_coeff 378 378  0.4 2.81524
pair_coeff 379 379  0.2 3.11815
pair_coeff 380 380  0.14 2.9
pair_coeff 381 381  0.2 3.74
pair_coeff 382 382  0.2 3.15
pair_coeff 383 383  0.14 2.9
pair_coeff 384 384  0.066 3.5
pair_coeff 385 385  0.03 2.5
pair_coeff 386 386  0.2 3.74
pair_coeff 387 387  0.2 3.15
pair_coeff 388 388  0.14 2.9
pair_coeff 389 389  0.066 3.5
pair_coeff 390 390  0.03 2.5
pair_coeff 391 391  0.2 3.74
pair_coeff 392 392  0.2 3.15
pair_coeff 393 393  0.14 2.9
pair_coeff 394 394  0.066 3.5
pair_coeff 395 395  0.03 2.5
pair_coeff 396 396  0.066 3.5
pair_coeff 397 397  0.03 2.5
pair_coeff 398 398  0.07 3.55
pair_coeff 399 399  0.066 3.5
pair_coeff 400 400  0.03 2.5
pair_coeff 401 401  0.07 3.55
pair_coeff 402 402  0.066 3.5
pair_coeff 403 403  0.03 2.5
pair_coeff 404 404  0.07 3.55
pair_coeff 405 405  0.066 3.5
pair_coeff 406 406  0.105 3.75
pair_coeff 407 407  0.21 2.96
pair_coeff 408 408  0.17 3.0
pair_coeff 409 409  0.066 3.5
pair_coeff 410 410  0.015 2.42
pair_coeff 411 411  0.105 3.75
pair_coeff 412 412  0.105 3.75
pair_coeff 413 413  0.07 3.55
pair_coeff 414 414  0.17 3.0
pair_coeff 415 415  0.25 3.55
pair_coeff 416 416  0.17 2.96
pair_coeff 417 417  0.066 3.5
pair_coeff 418 418  0.03 2.5
pair_coeff 419 419  0.17 3.25
pair_coeff 420 420  0.0 0.0
pair_coeff 421 421  0.17 3.25
pair_coeff 422 422  0.0 0.0
pair_coeff 423 423  0.066 3.5
pair_coeff 424 424  0.03 2.5
pair_coeff 425 425  0.066 3.5
pair_coeff 426 426  0.03 2.5
pair_coeff 427 427  0.066 3.5
pair_coeff 428 428  0.03 2.5
pair_coeff 429 429  0.07 3.55
pair_coeff 430 430  0.07 3.55
pair_coeff 431 431  0.066 3.5
pair_coeff 432 432  0.066 3.5
pair_coeff 433 433  0.066 3.5
pair_coeff 434 434  0.25 3.55
pair_coeff 435 435  0.17 2.96
pair_coeff 436 436  0.395 3.56
pair_coeff 437 437  0.395 3.56
pair_coeff 438 438  0.28 2.93
pair_coeff 439 439  0.066 3.5
pair_coeff 440 440  0.066 3.5
pair_coeff 441 441  0.07 3.55
pair_coeff 442 442  0.07 3.55
pair_coeff 443 443  0.07 3.55
pair_coeff 444 444  0.17 3.25
pair_coeff 445 445  0.0 0.0
pair_coeff 446 446  0.066 3.5
pair_coeff 447 447  0.07 3.55
pair_coeff 448 448  0.07 3.55
pair_coeff 449 449  0.07 3.55
pair_coeff 450 450  0.07 3.55
pair_coeff 451 451  0.07 3.55
pair_coeff 452 452  0.17 3.25
pair_coeff 453 453  0.17 3.25
pair_coeff 454 454  0.0 0.0
pair_coeff 455 455  0.07 3.55
pair_coeff 456 456  0.066 3.5
pair_coeff 457 457  0.066 3.5
pair_coeff 458 458  0.076 3.55
pair_coeff 459 459  0.076 3.55
pair_coeff 460 460  0.07 3.55
pair_coeff 461 461  0.17 3.25
pair_coeff 462 462  0.07 3.55
pair_coeff 463 463  0.07 3.55
pair_coeff 464 464  0.07 3.55
pair_coeff 465 465  0.03 2.42
pair_coeff 466 466  0.03 2.42
pair_coeff 467 467  0.03 2.42
pair_coeff 468 468  0.17 3.25
pair_coeff 469 469  0.07 3.55
pair_coeff 470 470  0.03 2.42
pair_coeff 471 471  0.17 3.25
pair_coeff 472 472  0.07 3.55
pair_coeff 473 473  0.07 3.55
pair_coeff 474 474  0.07 3.55
pair_coeff 475 475  0.03 2.42
pair_coeff 476 476  0.03 2.42
pair_coeff 477 477  0.03 2.42
pair_coeff 478 478  0.17 3.25
pair_coeff 479 479  0.07 3.55
pair_coeff 480 480  0.07 3.55
pair_coeff 481 481  0.03 2.42
pair_coeff 482 482  0.03 2.42
pair_coeff 483 483  0.17 3.25
pair_coeff 484 484  0.07 3.55
pair_coeff 485 485  0.07 3.55
pair_coeff 486 486  0.0 0.0
pair_coeff 487 487  0.03 2.42
pair_coeff 488 488  0.03 2.42
pair_coeff 489 489  0.17 3.25
pair_coeff 490 490  0.17 3.25
pair_coeff 491 491  0.07 3.55
pair_coeff 492 492  0.07 3.55
pair_coeff 493 493  0.07 3.55
pair_coeff 494 494  0.0 0.0
pair_coeff 495 495  0.03 2.42
pair_coeff 496 496  0.03 2.42
pair_coeff 497 497  0.03 2.42
pair_coeff 498 498  0.17 3.25
pair_coeff 499 499  0.07 3.55
pair_coeff 500 500  0.17 3.25
pair_coeff 501 501  0.07 3.55
pair_coeff 502 502  0.07 3.55
pair_coeff 503 503  0.0 0.0
pair_coeff 504 504  0.03 2.42
pair_coeff 505 505  0.03 2.42
pair_coeff 506 506  0.03 2.42
pair_coeff 507 507  0.14 2.9
pair_coeff 508 508  0.07 3.55
pair_coeff 509 509  0.076 3.55
pair_coeff 510 510  0.03 2.42
pair_coeff 511 511  0.03 2.42
pair_coeff 512 512  0.14 2.9
pair_coeff 513 513  0.07 3.55
pair_coeff 514 514  0.17 3.25
pair_coeff 515 515  0.07 3.55
pair_coeff 516 516  0.07 3.55
pair_coeff 517 517  0.03 2.42
pair_coeff 518 518  0.03 2.42
pair_coeff 519 519  0.03 2.42
pair_coeff 520 520  0.14 2.9
pair_coeff 521 521  0.17 3.25
pair_coeff 522 522  0.07 3.55
pair_coeff 523 523  0.07 3.55
pair_coeff 524 524  0.07 3.55
pair_coeff 525 525  0.03 2.42
pair_coeff 526 526  0.03 2.42
pair_coeff 527 527  0.03 2.42
pair_coeff 528 528  0.17 3.25
pair_coeff 529 529  0.07 3.55
pair_coeff 530 530  0.07 3.55
pair_coeff 531 531  0.07 3.55
pair_coeff 532 532  0.07 3.55
pair_coeff 533 533  0.07 3.55
pair_coeff 534 534  0.07 3.55
pair_coeff 535 535  0.07 3.55
pair_coeff 536 536  0.07 3.55
pair_coeff 537 537  0.0 0.0
pair_coeff 538 538  0.03 2.42
pair_coeff 539 539  0.03 2.42
pair_coeff 540 540  0.03 2.42
pair_coeff 541 541  0.03 2.42
pair_coeff 542 542  0.03 2.42
pair_coeff 543 543  0.03 2.42
pair_coeff 544 544  0.17 3.25
pair_coeff 545 545  0.07 3.55
pair_coeff 546 546  0.07 3.55
pair_coeff 547 547  0.07 3.55
pair_coeff 548 548  0.07 3.55
pair_coeff 549 549  0.07 3.55
pair_coeff 550 550  0.07 3.55
pair_coeff 551 551  0.07 3.55
pair_coeff 552 552  0.07 3.55
pair_coeff 553 553  0.07 3.55
pair_coeff 554 554  0.03 2.42
pair_coeff 555 555  0.03 2.42
pair_coeff 556 556  0.03 2.42
pair_coeff 557 557  0.03 2.42
pair_coeff 558 558  0.03 2.42
pair_coeff 559 559  0.03 2.42
pair_coeff 560 560  0.03 2.42
pair_coeff 561 561  0.17 3.25
pair_coeff 562 562  0.07 3.55
pair_coeff 563 563  0.17 3.25
pair_coeff 564 564  0.07 3.55
pair_coeff 565 565  0.07 3.55
pair_coeff 566 566  0.07 3.55
pair_coeff 567 567  0.17 3.25
pair_coeff 568 568  0.07 3.55
pair_coeff 569 569  0.17 3.25
pair_coeff 570 570  0.03 2.42
pair_coeff 571 571  0.03 2.42
pair_coeff 572 572  0.03 2.42
pair_coeff 573 573  0.0 0.0
pair_coeff 574 574  0.25 3.55
pair_coeff 575 575  0.07 3.55
pair_coeff 576 576  0.17 3.25
pair_coeff 577 577  0.07 3.55
pair_coeff 578 578  0.07 3.55
pair_coeff 579 579  0.03 2.42
pair_coeff 580 580  0.03 2.42
pair_coeff 581 581  0.03 2.42
pair_coeff 582 582  0.17 3.25
pair_coeff 583 583  0.07 3.55
pair_coeff 584 584  0.03 2.42
pair_coeff 585 585  0.07 3.55
pair_coeff 586 586  0.066 3.5
pair_coeff 587 587  0.17 3.25
pair_coeff 588 588  0.07 3.55
pair_coeff 589 589  0.07 3.55
pair_coeff 590 590  0.07 3.55
pair_coeff 591 591  0.07 3.55
pair_coeff 592 592  0.07 3.55
pair_coeff 593 593  0.07 3.55
pair_coeff 594 594  0.03 2.42
pair_coeff 595 595  0.03 2.42
pair_coeff 596 596  0.03 2.42
pair_coeff 597 597  0.03 2.42
pair_coeff 598 598  0.17 3.25
pair_coeff 599 599  0.07 3.55
pair_coeff 600 600  0.17 3.25
pair_coeff 601 601  0.07 3.55
pair_coeff 602 602  0.07 3.55
pair_coeff 603 603  0.066 3.5
pair_coeff 604 604  0.03 2.42
pair_coeff 605 605  0.03 2.42
pair_coeff 606 606  0.03 2.42
pair_coeff 607 607  0.03 2.5
pair_coeff 608 608  0.066 3.5
pair_coeff 609 609  0.066 3.5
pair_coeff 610 610  0.066 3.5
pair_coeff 611 611  0.066 3.5
pair_coeff 612 612  0.066 3.5
pair_coeff 613 613  0.066 3.5
pair_coeff 614 614  0.066 3.5
pair_coeff 615 615  0.066 3.5
pair_coeff 616 616  0.066 3.5
pair_coeff 617 617  0.066 3.5
pair_coeff 618 618  0.066 3.5
pair_coeff 619 619  0.066 3.5
pair_coeff 620 620  0.066 3.5
pair_coeff 621 621  0.066 3.5
pair_coeff 622 622  0.066 3.5
pair_coeff 623 623  0.25 3.55
pair_coeff 624 624  0.0 0.0
pair_coeff 625 625  0.07 3.55
pair_coeff 626 626  0.105 3.75
pair_coeff 627 627  0.17 3.25
pair_coeff 628 628  0.066 3.5
pair_coeff 629 629  0.066 3.5
pair_coeff 630 630  0.066 3.5
pair_coeff 631 631  0.07 3.55
pair_coeff 632 632  0.07 3.55
pair_coeff 633 633  0.07 3.55
pair_coeff 634 634  0.07 3.55
pair_coeff 635 635  0.07 3.55
pair_coeff 636 636  0.07 3.55
pair_coeff 637 637  0.25 3.55
pair_coeff 638 638  0.054 3.473
pair_coeff 639 639  0.05 3.3
pair_coeff 640 640  0.05 3.3
pair_coeff 641 641  0.076 3.55
pair_coeff 642 642  0.066 3.5
pair_coeff 643 643  0.03 2.5
pair_coeff 644 644  0.06 3.75
pair_coeff 645 645  0.054 3.473
pair_coeff 646 646  0.05 3.3
pair_coeff 647 647  0.05 3.3
pair_coeff 648 648  0.04 2.95
pair_coeff 649 649  0.076 3.55
pair_coeff 650 650  0.3 3.4
pair_coeff 651 651  0.03 2.42
pair_coeff 652 652  0.066 3.5
pair_coeff 653 653  0.066 3.5
pair_coeff 654 654  0.066 3.5
pair_coeff 655 655  0.07 3.55
pair_coeff 656 656  0.03 2.42
pair_coeff 657 657  0.07 3.55
pair_coeff 658 658  0.03 2.42
pair_coeff 659 659  0.07 3.55
pair_coeff 660 660  0.061 2.85
pair_coeff 661 661  0.07 3.55
pair_coeff 662 662  0.061 2.85
pair_coeff 663 663  0.47 3.47
pair_coeff 664 664  0.118 3.905
pair_coeff 665 665  0.07 3.55
pair_coeff 666 666  0.062 3.25
pair_coeff 667 667  0.061 2.94
pair_coeff 668 668  0.07 3.55
pair_coeff 669 669  0.061 2.85
pair_coeff 670 670  0.07 3.55
pair_coeff 671 671  0.47 3.47
pair_coeff 672 672  0.07 3.55
pair_coeff 673 673  0.6 3.75
pair_coeff 674 674  0.066 3.5
pair_coeff 675 675  0.25 3.55
pair_coeff 676 676  0.07 3.55
pair_coeff 677 677  0.07 3.55
pair_coeff 678 678  0.07 3.55
pair_coeff 679 679  0.07 3.55
pair_coeff 680 680  0.07 3.55
pair_coeff 681 681  0.03 2.42
pair_coeff 682 682  0.03 2.42
pair_coeff 683 683  0.05 3.55
pair_coeff 684 684  0.17 3.25
pair_coeff 685 685  0.0 0.0
pair_coeff 686 686  0.0 0.0
pair_coeff 687 687  0.03 2.42
pair_coeff 688 688  0.066 3.5
pair_coeff 689 689  0.066 3.5
pair_coeff 690 690  0.17 3.25
pair_coeff 691 691  0.17 3.25
pair_coeff 692 692  0.17 3.25
pair_coeff 693 693  0.05 3.55
pair_coeff 694 694  0.17 3.2
pair_coeff 695 695  0.066 3.3
pair_coeff 696 696  0.066 3.3
pair_coeff 697 697  0.066 3.3
pair_coeff 698 698  0.066 3.3
pair_coeff 699 699  0.066 3.3
pair_coeff 700 700  0.015 2.5
pair_coeff 701 701  0.12 3.25
pair_coeff 702 702  0.17 2.96
pair_coeff 703 703  0.066 3.5
pair_coeff 704 704  0.015 2.5
pair_coeff 705 705  0.066 3.5
pair_coeff 706 706  0.066 3.5
pair_coeff 707 707  0.066 3.5
pair_coeff 708 708  0.12 3.25
pair_coeff 709 709  0.07 3.55
pair_coeff 710 710  0.066 3.3
pair_coeff 711 711  0.17 3.25
pair_coeff 712 712  0.21 2.96
pair_coeff 713 713  0.105 3.75
pair_coeff 714 714  0.17 3.0
pair_coeff 715 715  0.066 3.5
pair_coeff 716 716  0.066 3.5
pair_coeff 717 717  0.066 3.5
pair_coeff 718 718  0.015 2.42
pair_coeff 719 719  0.015 2.42
pair_coeff 720 720  0.015 2.42
pair_coeff 721 721  0.14 2.9
pair_coeff 722 722  0.2 3.74
pair_coeff 723 723  0.066 3.5
pair_coeff 724 724  0.066 3.5
pair_coeff 725 725  0.03 2.5
pair_coeff 726 726  0.2 3.74
pair_coeff 727 727  0.061 3.1181
pair_coeff 728 728  0.17 3.15
pair_coeff 729 729  0.21 2.86
pair_coeff 730 730  0.17 3.3
pair_coeff 731 731  0.17 3.3
pair_coeff 732 732  0.17 3.3
pair_coeff 733 733  0.066 3.5
pair_coeff 734 734  0.066 3.5
pair_coeff 735 735  0.066 3.5
pair_coeff 736 736  0.066 3.5
pair_coeff 737 737  0.066 3.5
pair_coeff 738 738  0.066 3.5
pair_coeff 739 739  0.0 0.0
pair_coeff 740 740  0.0 0.0
pair_coeff 741 741  0.015 2.5
pair_coeff 742 742  0.066 3.5
pair_coeff 743 743  0.066 3.5
pair_coeff 744 744  0.066 3.5
pair_coeff 745 745  0.066 3.5
pair_coeff 746 746  0.07 3.55
pair_coeff 747 747  0.07 3.55
pair_coeff 748 748  0.07 3.55
pair_coeff 749 749  0.066 3.5
pair_coeff 750 750  0.066 3.5
pair_coeff 751 751  0.066 3.5
pair_coeff 752 752  0.066 3.5
pair_coeff 753 753  0.066 3.5
pair_coeff 754 754  0.066 3.5
pair_coeff 755 755  0.086 3.3
pair_coeff 756 756  0.015 2.42
pair_coeff 757 757  0.21 3.3
pair_coeff 758 758  0.135 3.3
pair_coeff 759 759  0.1 3.3
pair_coeff 760 760  0.015 2.5
pair_coeff 761 761  0.066 3.5
pair_coeff 762 762  0.066 3.5
pair_coeff 763 763  0.066 3.5
pair_coeff 764 764  0.17 3.12
pair_coeff 765 765  0.0 0.0
pair_coeff 766 766  0.17 3.25
pair_coeff 767 767  0.17 3.25
pair_coeff 768 768  0.17 3.25
pair_coeff 769 769  0.21 3.3
pair_coeff 770 770  0.17 3.25
pair_coeff 771 771  0.0 0.0
pair_coeff 772 772  0.066 3.5
pair_coeff 773 773  0.066 3.5
pair_coeff 774 774  0.066 3.5
pair_coeff 775 775  0.066 3.5
pair_coeff 776 776  0.07 3.55
pair_coeff 777 777  0.076 3.55
pair_coeff 778 778  0.07 3.55
pair_coeff 779 779  0.07 3.55
pair_coeff 780 780  0.03 2.5
pair_coeff 781 781  0.066 3.5
pair_coeff 782 782  0.105 3.75
pair_coeff 783 783  0.17 3.25
pair_coeff 784 784  0.21 2.96
pair_coeff 785 785  0.0 0.0
pair_coeff 786 786  0.061 2.94
pair_coeff 787 787  0.066 3.5
pair_coeff 788 788  0.03 2.5
pair_coeff 789 789  0.066 3.5
pair_coeff 790 790  0.066 3.5
pair_coeff 791 791  0.066 3.5
pair_coeff 792 792  0.066 3.5
pair_coeff 793 793  0.066 3.5
pair_coeff 794 794  0.097 3.5
pair_coeff 795 795  0.053 2.95
pair_coeff 796 796  0.062 3.25
pair_coeff 797 797  0.03 2.5
pair_coeff 798 798  0.066 3.5
pair_coeff 799 799  0.066 3.5
pair_coeff 800 800  0.3 3.4
pair_coeff 801 801  0.066 3.5
pair_coeff 802 802  0.03 2.5
pair_coeff 803 803  0.066 3.5
pair_coeff 804 804  0.066 3.5
pair_coeff 805 805  0.47 3.47
pair_coeff 806 806  0.066 3.5
pair_coeff 807 807  0.03 2.5
pair_coeff 808 808  0.066 3.5
pair_coeff 809 809  0.066 3.5
pair_coeff 810 810  0.061 2.94
pair_coeff 811 811  0.3 3.4
pair_coeff 812 812  0.47 3.47
pair_coeff 813 813  0.07 3.55
pair_coeff 814 814  0.14 2.9
pair_coeff 815 815  0.066 3.5
pair_coeff 816 816  0.06 2.9
pair_coeff 817 817  0.17 3.25
pair_coeff 818 818  0.07 3.55
pair_coeff 819 819  0.066 3.5
pair_coeff 820 820  0.105 3.75
pair_coeff 821 821  0.105 3.75
pair_coeff 822 822  0.21 2.96
pair_coeff 823 823  0.17 3.25
pair_coeff 824 824  0.0 0.0
pair_coeff 825 825  0.17 3.12
pair_coeff 826 826  0.0 0.0
pair_coeff 827 827  0.066 3.5
pair_coeff 828 828  0.066 3.5
pair_coeff 829 829  0.07 3.55
pair_coeff 830 830  0.07 3.55
pair_coeff 831 831  0.07 3.55
pair_coeff 832 832  0.07 3.55
pair_coeff 833 833  0.07 3.55
pair_coeff 834 834  0.0125 1.96
pair_coeff 835 835  0.066 3.5
pair_coeff 836 836  0.066 3.5
pair_coeff 837 837  0.066 3.5
pair_coeff 838 838  0.6 3.75
pair_coeff 839 839  0.03 2.5
pair_coeff 840 840  0.17 3.25
pair_coeff 841 841  0.07 3.55
pair_coeff 842 842  0.07 3.55
pair_coeff 843 843  0.17 3.25
pair_coeff 844 844  0.07 3.55
pair_coeff 845 845  0.105 3.75
pair_coeff 846 846  0.21 2.96
pair_coeff 847 847  0.17 3.25
pair_coeff 848 848  0.066 3.5
pair_coeff 849 849  0.066 3.5
pair_coeff 850 850  0.066 3.5
pair_coeff 851 851  0.066 3.5
pair_coeff 852 852  0.015 2.42
pair_coeff 853 853  0.105 3.75
pair_coeff 854 854  0.21 2.96
pair_coeff 855 855  0.015 2.42
pair_coeff 856 856  0.066 3.5
pair_coeff 857 857  0.066 3.5
pair_coeff 858 858  0.066 3.5
pair_coeff 859 859  0.066 3.5
pair_coeff 860 860  0.066 3.5
pair_coeff 861 861  0.066 3.5
pair_coeff 862 862  0.066 3.5
pair_coeff 863 863  0.066 3.5
pair_coeff 864 864  0.066 3.5
pair_coeff 865 865  0.066 3.5
pair_coeff 866 866  0.1 4.0
pair_coeff 867 867  0.1 4.0
pair_coeff 868 868  0.1 4.0
pair_coeff 869 869  0.1 4.0
pair_coeff 870 870  0.03 2.5
pair_coeff 871 871  0.066 3.5
pair_coeff 872 872  0.066 3.5
pair_coeff 873 873  0.066 3.5
pair_coeff 874 874  0.066 3.5
pair_coeff 875 875  0.72 3.08
pair_coeff 876 876  0.11779 4.18
pair_coeff 877 877  0.09 4.51
pair_coeff 878 878  0.07 5.15
pair_coeff 879 879  0.018279 2.7
pair_coeff 880 880  0.002772 3.35
pair_coeff 881 881  0.000328 4.06
pair_coeff 882 882  0.000171 4.32
pair_coeff 883 883  8.1e-05 4.82
pair_coeff 884 884  0.875044 2.91
pair_coeff 885 885  0.449657 3.47
pair_coeff 886 886  0.118226 3.82
pair_coeff 887 887  0.047096 4.18
pair_coeff 888 888  0.066 3.5
pair_coeff 889 889  0.066 3.5
pair_coeff 890 890  0.066 3.5
pair_coeff 891 891  0.066 3.5
pair_coeff 892 892  0.03 2.5
pair_coeff 893 893  0.17 3.25
pair_coeff 894 894  0.07 3.55
pair_coeff 895 895  0.17 3.25
pair_coeff 896 896  0.07 3.55
pair_coeff 897 897  0.076 3.55
pair_coeff 898 898  0.076 3.55
pair_coeff 899 899  0.03 2.42
pair_coeff 900 900  0.086 3.3
pair_coeff 901 901  0.086 3.3
pair_coeff 902 902  0.086 3.3
pair_coeff 903 903  0.086 3.3
pair_coeff 904 904  0.086 3.3
pair_coeff 905 905  0.21 2.96
pair_coeff 906 906  0.066 3.5
bond_coeff 6  367.0 1.38
bond_coeff 7  420.0 1.357
bond_coeff 8  367.0 1.36
bond_coeff 9  450.0 1.279
bond_coeff 10  300.0 0.3
bond_coeff 11  420.0 1.34
bond_coeff 12  420.0 1.354
bond_coeff 13  420.0 1.354
bond_coeff 14  420.0 1.354
bond_coeff 15  420.0 1.354
bond_coeff 16  420.0 1.354
bond_coeff 17  420.0 1.354
bond_coeff 18  461.0 1.57
bond_coeff 19  260.0 1.526
bond_coeff 20  317.0 1.522
bond_coeff 21  386.0 1.425
bond_coeff 22  260.0 1.526
bond_coeff 23  260.0 1.526
bond_coeff 24  317.0 1.5
bond_coeff 25  317.0 1.51
bond_coeff 26  260.0 1.526
bond_coeff 27  317.0 1.5
bond_coeff 28  222.0 1.81
bond_coeff 29  222.0 1.81
bond_coeff 30  320.0 1.425
bond_coeff 31  337.0 1.449
bond_coeff 32  382.0 1.448
bond_coeff 33  317.0 1.51
bond_coeff 34  260.0 1.526
bond_coeff 35  367.0 1.471
bond_coeff 36  337.0 1.463
bond_coeff 37  317.0 1.495
bond_coeff 38  350.0 1.51
bond_coeff 39  570.0 1.229
bond_coeff 40  450.0 1.364
bond_coeff 41  317.0 1.522
bond_coeff 42  317.0 1.522
bond_coeff 43  469.0 1.4
bond_coeff 44  317.0 1.522
bond_coeff 45  400.0 1.444
bond_coeff 46  214.0 1.327
bond_coeff 47  300.0 1.79
bond_coeff 48  490.0 1.335
bond_coeff 49  317.0 1.522
bond_coeff 50  340.0 1.09
bond_coeff 51  410.0 1.444
bond_coeff 52  400.0 1.49
bond_coeff 53  385.0 1.46
bond_coeff 54  656.0 1.25
bond_coeff 55  457.0 1.358
bond_coeff 56  418.0 1.388
bond_coeff 57  447.0 1.419
bond_coeff 58  300.0 1.98
bond_coeff 59  400.0 1.49
bond_coeff 60  385.0 1.46
bond_coeff 61  424.0 1.383
bond_coeff 62  490.0 1.335
bond_coeff 63  553.0 0.3
bond_coeff 64  525.0 1.48
bond_coeff 65  570.0 1.229
bond_coeff 66  700.0 1.171
bond_coeff 67  386.0 1.425
bond_coeff 68  553.0 0.945
bond_coeff 69  386.0 1.425
bond_coeff 70  320.0 1.41
bond_coeff 71  250.0 1.47
bond_coeff 72  400.0 1.38
bond_coeff 73  340.0 0.3
bond_coeff 74  320.0 1.45
bond_coeff 75  450.0 1.37
bond_coeff 76  450.0 1.364
bond_coeff 77  320.0 1.38
bond_coeff 78  230.0 1.61
bond_coeff 79  450.0 1.67
bond_coeff 80  94.0 1.8
bond_coeff 81  374.0 1.64
bond_coeff 82  260.0 1.526
bond_coeff 83  260.0 1.526
bond_coeff 84  317.0 1.5
bond_coeff 85  260.0 1.526
bond_coeff 86  317.0 1.5
bond_coeff 87  222.0 1.81
bond_coeff 88  222.0 1.81
bond_coeff 89  320.0 1.425
bond_coeff 90  337.0 1.449
bond_coeff 91  382.0 1.448
bond_coeff 92  317.0 1.51
bond_coeff 93  260.0 1.526
bond_coeff 94  367.0 1.471
bond_coeff 95  337.0 1.463
bond_coeff 96  222.0 1.81
bond_coeff 97  337.0 1.475
bond_coeff 98  553.0 0.945
bond_coeff 99  340.0 0.1
bond_coeff 100  530.0 1.34
bond_coeff 101  530.0 1.34
bond_coeff 102  530.0 1.34
bond_coeff 103  260.0 1.526
bond_coeff 104  317.0 1.5
bond_coeff 105  317.0 1.5
bond_coeff 106  320.0 1.425
bond_coeff 107  337.0 1.449
bond_coeff 108  382.0 1.448
bond_coeff 109  337.0 1.475
bond_coeff 110  530.0 1.34
bond_coeff 111  317.0 1.5
bond_coeff 112  530.0 1.34
bond_coeff 113  222.0 1.76
bond_coeff 114  469.0 1.4
bond_coeff 115  469.0 1.4
bond_coeff 116  469.0 1.4
bond_coeff 117  469.0 1.4
bond_coeff 118  268.0 1.529
bond_coeff 119  317.0 1.5
bond_coeff 120  222.0 1.81
bond_coeff 121  222.0 1.81
bond_coeff 122  390.0 1.43
bond_coeff 123  390.0 1.47